2025-10-19 00:23:19,550 - INFO - 📌 第一个 epoch：默认所有模块使用 checkpoint
2025-10-19 00:23:29,933 - INFO - Epoch 1 completed in 10.399623 seconds
2025-10-19 00:23:32,914 - INFO - torch.cuda.max_memory_reserved() : 9.49609375
2025-10-19 00:23:44,091 - INFO - 
[🔁 拟合反向传播时间模型]
2025-10-19 00:23:44,091 - INFO - 总反向传播时间: 11.103565s
2025-10-19 00:23:44,092 - INFO - 拟合模型: backward_total ≈ 2 × (A + B) + b
2025-10-19 00:23:44,092 - INFO - A = 7.141266, B = 0.444317, b = 3.517982s
2025-10-19 00:23:44,138 - INFO - Set parameter LicenseID to value 2706656
2025-10-19 00:23:44,167 - INFO - Set parameter LogToConsole to value 1
2025-10-19 00:23:44,167 - INFO - Set parameter LogFile to value ""
2025-10-19 00:23:44,167 - INFO - Set parameter Threads to value 12
2025-10-19 00:23:44,167 - INFO - Set parameter TimeLimit to value 3600
2025-10-19 00:23:44,168 - INFO - Set parameter OptimalityTol to value 0.0001
2025-10-19 00:23:44,169 - INFO - Set parameter IntFeasTol to value 1e-05
2025-10-19 00:23:44,169 - INFO - Set parameter StartNodeLimit to value 10000000
2025-10-19 00:23:44,253 - INFO - Set parameter TimeLimit to value 3600
2025-10-19 00:23:44,253 - INFO - 
2025-10-19 00:23:44,253 - INFO - 
2025-10-19 00:23:44,253 - INFO - Restarting solve
2025-10-19 00:23:44,253 - INFO - 
2025-10-19 00:23:44,253 - INFO - 
2025-10-19 00:23:44,255 - INFO - Gurobi Optimizer version 12.0.3 build v12.0.3rc0 (linux64 - "Ubuntu 20.04.6 LTS")
2025-10-19 00:23:44,255 - INFO - 
2025-10-19 00:23:44,255 - INFO - CPU model: Intel(R) Xeon(R) Platinum 8260 CPU @ 2.40GHz, instruction set [SSE2|AVX|AVX2|AVX512]
2025-10-19 00:23:44,255 - INFO - Thread count: 48 physical cores, 96 logical processors, using up to 12 threads
2025-10-19 00:23:44,255 - INFO - 
2025-10-19 00:23:44,255 - INFO - Non-default parameters:
2025-10-19 00:23:44,256 - INFO - TimeLimit  3600
2025-10-19 00:23:44,256 - INFO - OptimalityTol  0.0001
2025-10-19 00:23:44,256 - INFO - StartNodeLimit  10000000
2025-10-19 00:23:44,256 - INFO - Threads  12
2025-10-19 00:23:44,256 - INFO - 
2025-10-19 00:23:44,256 - INFO - Optimize a model with 5603 rows, 3584 columns and 15200 nonzeros
2025-10-19 00:23:44,256 - INFO - Model fingerprint: 0xc6c68420
2025-10-19 00:23:44,256 - INFO - Variable types: 1024 continuous, 2560 integer (2560 binary)
2025-10-19 00:23:44,256 - INFO - Coefficient statistics:
2025-10-19 00:23:44,256 - INFO -   Matrix range     [1e+00, 4e+15]
2025-10-19 00:23:44,256 - INFO -   Objective range  [1e+05, 1e+06]
2025-10-19 00:23:44,256 - INFO -   Bounds range     [1e+00, 1e+16]
2025-10-19 00:23:44,257 - INFO -   RHS range        [1e+00, 1e+16]
2025-10-19 00:23:44,257 - INFO - Warning: Model contains large matrix coefficient range
2025-10-19 00:23:44,257 - INFO - Warning: Model contains large rhs
2025-10-19 00:23:44,257 - INFO - Warning: Model contains large bounds
2025-10-19 00:23:44,257 - INFO -          Consider reformulating model or setting NumericFocus parameter
2025-10-19 00:23:44,257 - INFO -          to avoid numerical issues.
2025-10-19 00:23:44,277 - INFO - Presolve removed 4283 rows and 1964 columns
2025-10-19 00:23:44,277 - INFO - Presolve time: 0.02s
2025-10-19 00:23:44,277 - INFO - Presolved: 1320 rows, 1620 columns, 4514 nonzeros
2025-10-19 00:23:44,279 - INFO - Variable types: 0 continuous, 1620 integer (1095 binary)
2025-10-19 00:23:44,295 - INFO - 
2025-10-19 00:23:44,295 - INFO - Root relaxation: objective 2.362786e+07, 480 iterations, 0.01 seconds (0.01 work units)
2025-10-19 00:23:44,322 - INFO - 
2025-10-19 00:23:44,322 - INFO -     Nodes    |    Current Node    |     Objective Bounds      |     Work
2025-10-19 00:23:44,322 - INFO -  Expl Unexpl |  Obj  Depth IntInf | Incumbent    BestBd   Gap | It/Node Time
2025-10-19 00:23:44,322 - INFO - 
2025-10-19 00:23:44,322 - INFO -      0     0 2.3628e+07    0   80          - 2.3628e+07      -     -    0s
2025-10-19 00:23:44,358 - INFO -      0     0 2.3837e+07    0  106          - 2.3837e+07      -     -    0s
2025-10-19 00:23:44,368 - INFO -      0     0 2.3842e+07    0  138          - 2.3842e+07      -     -    0s
2025-10-19 00:23:44,380 - INFO -      0     0 2.3878e+07    0  234          - 2.3878e+07      -     -    0s
2025-10-19 00:23:44,399 - INFO -      0     0 2.3939e+07    0  282          - 2.3939e+07      -     -    0s
2025-10-19 00:23:44,407 - INFO -      0     0 2.3944e+07    0  245          - 2.3944e+07      -     -    0s
2025-10-19 00:23:44,423 - INFO -      0     0 2.3946e+07    0  301          - 2.3946e+07      -     -    0s
2025-10-19 00:23:44,481 - INFO -      0     2 2.3947e+07    0  301          - 2.3947e+07      -     -    0s
2025-10-19 00:23:44,519 - INFO - *  286   317              28    2.511902e+07 2.3954e+07  4.64%   6.2    0s
2025-10-19 00:23:44,519 - INFO - *  313   317              21    2.413217e+07 2.3954e+07  0.74%   6.0    0s
2025-10-19 00:23:44,555 - INFO - *  793   423              40    2.411619e+07 2.3969e+07  0.61%   3.4    0s
2025-10-19 00:23:44,584 - INFO - * 1348   703             116    2.398465e+07 2.3969e+07  0.07%   2.0    0s
2025-10-19 00:23:44,645 - INFO - * 4043   815             126    2.396868e+07 2.3969e+07  0.00%   0.7    0s
2025-10-19 00:23:44,647 - INFO - 
2025-10-19 00:23:44,647 - INFO - Cutting planes:
2025-10-19 00:23:44,647 - INFO -   Cover: 27
2025-10-19 00:23:44,647 - INFO -   GUB cover: 2
2025-10-19 00:23:44,648 - INFO - 
2025-10-19 00:23:44,648 - INFO - Explored 4743 nodes (4168 simplex iterations) in 0.39 seconds (0.37 work units)
2025-10-19 00:23:44,648 - INFO - Thread count was 12 (of 96 available processors)
2025-10-19 00:23:44,648 - INFO - 
2025-10-19 00:23:44,648 - INFO - Solution count 5: 2.39687e+07 2.39847e+07 2.41162e+07 ... 2.5119e+07
2025-10-19 00:23:44,648 - INFO - 
2025-10-19 00:23:44,648 - INFO - Optimal solution found (tolerance 1.00e-04)
2025-10-19 00:23:44,648 - INFO - Warning: max constraint violation (1.0000e+00) exceeds tolerance
2025-10-19 00:23:44,648 - INFO -          (possibly due to large matrix coefficients)
2025-10-19 00:23:44,648 - INFO - Best objective 2.396867500000e+07, best bound 2.396867500000e+07, gap 0.0000%
2025-10-19 00:23:44,660 - INFO - 规划前的显存GB：12.0
2025-10-19 00:23:44,660 - INFO - 规划后的显存GB：10.495894432067871
2025-10-19 00:23:44,660 - INFO - ✅ 最优策略：[1, 1, 1, 1, 1, 1, 1, 0, 0, 1, 0, 0, 0, 0, 0, 0]
2025-10-19 00:23:44,660 - INFO - 📌 checkpoint 的欧氏长度:, [115]
2025-10-19 00:23:44,660 - INFO - 📌 checkpoint 的余弦长度:, [14, 42, 57, 71, 86, 100, 115]
2025-10-19 00:23:44,660 - INFO - 💾 最终显存峰值：%.2f MB % 19807.36321258545
2025-10-19 00:23:44,669 - INFO - Epoch 2 completed in 11.754879 seconds
2025-10-19 00:23:44,670 - INFO - torch.cuda.max_memory_reserved() : 9.49609375
2025-10-19 00:23:53,004 - INFO - Epoch 3 completed in 8.334308 seconds
2025-10-19 00:23:53,005 - INFO - 
====================== [第1个 Epoch 收集统计数据] ======================
2025-10-19 00:23:53,005 - INFO - 
🔍 EUCLIDEAN modules:
2025-10-19 00:23:53,005 - INFO - [Shapelet  14] forward_avg=0.008309s over 16 calls | peak=733.24MB | final=0.00MB
2025-10-19 00:23:53,005 - INFO - [Shapelet  28] forward_avg=0.009282s over 16 calls | peak=1257.07MB | final=0.00MB
2025-10-19 00:23:53,005 - INFO - [Shapelet  42] forward_avg=0.011796s over 16 calls | peak=1641.29MB | final=0.00MB
2025-10-19 00:23:53,005 - INFO - [Shapelet  57] forward_avg=0.013041s over 16 calls | peak=1901.19MB | final=0.00MB
2025-10-19 00:23:53,005 - INFO - [Shapelet  71] forward_avg=0.013692s over 16 calls | peak=2000.96MB | final=0.00MB
2025-10-19 00:23:53,005 - INFO - [Shapelet  86] forward_avg=0.013211s over 16 calls | peak=1952.37MB | final=0.00MB
2025-10-19 00:23:53,005 - INFO - [Shapelet 100] forward_avg=0.013086s over 16 calls | peak=1765.30MB | final=0.00MB
2025-10-19 00:23:53,005 - INFO - [Shapelet 115] forward_avg=0.011611s over 16 calls | peak=1411.02MB | final=0.00MB
2025-10-19 00:23:53,005 - INFO - 
🔍 COSINE modules:
2025-10-19 00:23:53,005 - INFO - [Shapelet  14] forward_avg=0.004529s over 16 calls | peak=446.59MB | final=0.00MB
2025-10-19 00:23:53,005 - INFO - [Shapelet  28] forward_avg=0.004875s over 16 calls | peak=783.97MB | final=0.00MB
2025-10-19 00:23:53,005 - INFO - [Shapelet  42] forward_avg=0.006438s over 16 calls | peak=1029.18MB | final=0.00MB
2025-10-19 00:23:53,005 - INFO - [Shapelet  57] forward_avg=0.007306s over 16 calls | peak=1190.34MB | final=0.00MB
2025-10-19 00:23:53,005 - INFO - [Shapelet  71] forward_avg=0.007698s over 16 calls | peak=1244.70MB | final=0.00MB
2025-10-19 00:23:53,005 - INFO - [Shapelet  86] forward_avg=0.008029s over 16 calls | peak=1199.87MB | final=0.00MB
2025-10-19 00:23:53,005 - INFO - [Shapelet 100] forward_avg=0.008359s over 16 calls | peak=1063.27MB | final=0.00MB
2025-10-19 00:23:53,005 - INFO - [Shapelet 115] forward_avg=0.007514s over 16 calls | peak=815.09MB | final=0.00MB
2025-10-19 00:23:53,005 - INFO - 
🔍 CROSS modules:
2025-10-19 00:23:53,005 - INFO - [Shapelet  14] forward_avg=0.001162s over 16 calls
2025-10-19 00:23:53,005 - INFO - [Shapelet  28] forward_avg=0.001637s over 16 calls
2025-10-19 00:23:53,005 - INFO - [Shapelet  42] forward_avg=0.001583s over 16 calls
2025-10-19 00:23:53,005 - INFO - [Shapelet  57] forward_avg=0.001923s over 16 calls
2025-10-19 00:23:53,005 - INFO - [Shapelet  71] forward_avg=0.002160s over 16 calls
2025-10-19 00:23:53,005 - INFO - [Shapelet  86] forward_avg=0.001936s over 16 calls
2025-10-19 00:23:53,006 - INFO - [Shapelet 100] forward_avg=0.002007s over 16 calls
2025-10-19 00:23:53,006 - INFO - [Shapelet 115] forward_avg=0.001477s over 16 calls
2025-10-19 00:23:53,006 - INFO - 
💾 模型第一次反向传播阶段的显存峰值（所有模块中的最大值）: 11612.35 MB
2025-10-19 00:23:53,006 - INFO - 
💾 模型初始显存: 128.80 MB
2025-10-19 00:23:53,006 - INFO - =======================================================================

2025-10-19 00:23:53,006 - INFO - torch.cuda.max_memory_reserved() : 15.126953125
2025-10-19 00:24:01,756 - INFO - Epoch 4 completed in 8.749504 seconds
2025-10-19 00:24:01,756 - INFO - torch.cuda.max_memory_reserved() : 15.126953125
2025-10-19 00:24:10,470 - INFO - Epoch 5 completed in 8.712992 seconds
2025-10-19 00:24:10,470 - INFO - torch.cuda.max_memory_reserved() : 15.126953125
2025-10-19 00:24:19,217 - INFO - Epoch 6 completed in 8.746744 seconds
2025-10-19 00:24:19,217 - INFO - torch.cuda.max_memory_reserved() : 15.126953125
2025-10-19 00:24:29,224 - INFO - Epoch 7 completed in 10.005812 seconds
2025-10-19 00:24:29,224 - INFO - torch.cuda.max_memory_reserved() : 15.126953125
2025-10-19 00:24:49,392 - INFO - Epoch 8 completed in 20.166886 seconds
2025-10-19 00:24:49,393 - INFO - torch.cuda.max_memory_reserved() : 15.126953125
2025-10-19 00:25:02,072 - INFO - Epoch 9 completed in 12.678632 seconds
2025-10-19 00:25:02,072 - INFO - torch.cuda.max_memory_reserved() : 15.126953125
2025-10-19 00:25:28,039 - INFO - Epoch 10 completed in 25.965852 seconds
2025-10-19 00:25:31,581 - INFO - torch.cuda.max_memory_reserved() : 15.126953125
2025-10-19 00:25:31,582 - INFO - !!!采用策略后的几个epoch 平均时间:12.920091390609741
2025-10-19 00:25:31,582 - INFO - 



